c 218_win_checker.cnf
c
c field = 218
c formula set type = win_checker
c
p cnf 5 26
426 
428 
430 
432 
-424 
427 
429 
431 
433 
-425 
426 
428 
430 
432 
-436 
427 
429 
431 
433 
-437 
428 
430 
432 
436 
-426 
429 
431 
433 
437 
-427 
428 
430 
432 
436 
-438 
429 
431 
433 
437 
-439 
430 
432 
436 
438 
-428 
431 
433 
437 
439 
-429 
430 
432 
436 
438 
-440 
431 
433 
437 
439 
-441 
432 
436 
438 
440 
-430 
433 
437 
439 
441 
-431 
432 
436 
438 
440 
-442 
433 
437 
439 
441 
-443 
436 
438 
440 
442 
-432 
437 
439 
441 
443 
-433 
436 
438 
440 
442 
-444 
437 
439 
441 
443 
-445 
314 
344 
374 
404 
-284 
315 
345 
375 
405 
-285 
306 
338 
370 
402 
-274 
307 
339 
371 
403 
-275 
322 
350 
378 
406 
-294 
323 
351 
379 
407 
-295 
